! HF-3c OPT FREQ
%pal
nprocs 2
end
* xyz 0 1
C        0.00000000    0.00000000    0.00000000
O        1.42000000    0.00000000    0.00000000
H        1.83200000    0.96200000    0.00000000
O       -0.61300000    1.10200000    0.00000000
H       -0.16300000    1.96200000    0.00000000
H        0.00000000   -0.52700000    0.92700000
H        0.00000000   -0.52700000   -0.92700000
*
