! HF-3c OPT FREQ
%freq
Temp 300,400,500,600
end
%pal nprocs 2 end
%maxcore 1000

* xyz 0 1
C    0.00000000  0.00000000  0.00000000
O    1.40000000  0.00000000  0.00000000
C    2.10000000  1.26600000  0.00000000
H    1.50000000  2.00000000  0.50000000
H    3.10000000  1.26600000  0.40000000
H    2.10000000  1.60000000 -1.00000000
O   -1.40000000  0.00000000  0.00000000
C   -2.10000000 -1.26600000  0.00000000
H   -1.50000000 -2.00000000 -0.50000000
H   -3.10000000 -1.26600000 -0.40000000
H   -2.10000000 -1.60000000  1.00000000
H    0.00000000  0.90000000  0.80000000
H    0.00000000 -0.90000000  0.80000000
*
