! HF-3c OPT FREQ
%pal
nprocs 2
end
* xyz 0 1
C        0.00000000    0.00000000    0.00000000
O        1.42000000    0.00000000    0.00000000
C        1.83200000    1.40200000    0.00000000
H        2.92200000    1.40200000    0.00000000
H        1.43200000    1.90200000    0.87700000
H        1.43200000    1.90200000   -0.87700000
O       -1.42000000    0.00000000    0.00000000
C       -1.83200000   -1.40200000    0.00000000
H       -2.92200000   -1.40200000    0.00000000
H       -1.43200000   -1.90200000    0.87700000
H       -1.43200000   -1.90200000   -0.87700000
*
