! HF-3c OPT FREQ

%pal
nprocs 2
end

* xyz 0 1
O        0.00000000    0.00000000    0.00000000
H        0.00000000    0.75700000    0.58700000
H        0.00000000   -0.75700000    0.58700000
*


